NAME: P-n16-k8
COMMENT: GVRP
DIMENSION:  16 
VEHICLES:  4 
GVRP_SETS:  6 
CAPACITY:  35 
NODE_COORD_SECTION 
1 30.000000 40.000000
2 37.000000 52.000000
3 49.000000 49.000000
4 52.000000 64.000000
5 31.000000 62.000000
6 52.000000 33.000000
7 42.000000 41.000000
8 52.000000 41.000000
9 57.000000 58.000000
10 62.000000 42.000000
11 42.000000 57.000000
12 27.000000 68.000000
13 43.000000 67.000000
14 58.000000 48.000000
15 58.000000 27.000000
16 37.000000 69.000000
GVRP_SET_SECTION 
 1 4  9  13 -1
 2  15  6 -1
 3  12  5  16 -1
 4  7 -1
 5  14  3  8  10 -1
 6  2  11 -1
 DEMAND_SECTION
 1 19 
 2 15 
 3 13 
 4 31 
 5 14 
 6 13 
INTRA_CLUSTER_DISTANCE
100000000 100000000 100000000 100000000 100000000 100000000 100000000 100000000 100000000 100000000 100000000 100000000 100000000 100000000 100000000 100000000 
100000000 100000000 100000000 100000000 100000000 100000000 100000000 100000000 100000000 100000000 7 100000000 100000000 100000000 100000000 100000000 
100000000 100000000 100000000 100000000 100000000 100000000 100000000 26 100000000 25 100000000 100000000 100000000 26 100000000 100000000 
100000000 100000000 100000000 100000000 100000000 100000000 100000000 100000000 26 100000000 100000000 100000000 25 100000000 100000000 100000000 
100000000 100000000 100000000 100000000 100000000 100000000 100000000 100000000 100000000 100000000 100000000 19 100000000 100000000 100000000 17 
100000000 100000000 100000000 100000000 100000000 100000000 100000000 100000000 100000000 100000000 100000000 100000000 100000000 100000000 8 100000000 
100000000 100000000 100000000 100000000 100000000 100000000 100000000 100000000 100000000 100000000 100000000 100000000 100000000 100000000 100000000 100000000 
100000000 100000000 26 100000000 100000000 100000000 100000000 100000000 100000000 25 100000000 100000000 100000000 31 100000000 100000000 
100000000 100000000 100000000 26 100000000 100000000 100000000 100000000 100000000 100000000 100000000 100000000 17 100000000 100000000 100000000 
100000000 100000000 25 100000000 100000000 100000000 100000000 25 100000000 100000000 100000000 100000000 100000000 28 100000000 100000000 
100000000 7 100000000 100000000 100000000 100000000 100000000 100000000 100000000 100000000 100000000 100000000 100000000 100000000 100000000 100000000 
100000000 100000000 100000000 100000000 19 100000000 100000000 100000000 100000000 100000000 100000000 100000000 100000000 100000000 100000000 16 
100000000 100000000 100000000 25 100000000 100000000 100000000 100000000 17 100000000 100000000 100000000 100000000 100000000 100000000 100000000 
100000000 100000000 26 100000000 100000000 100000000 100000000 31 100000000 28 100000000 100000000 100000000 100000000 100000000 100000000 
100000000 100000000 100000000 100000000 100000000 8 100000000 100000000 100000000 100000000 100000000 100000000 100000000 100000000 100000000 100000000 
100000000 100000000 100000000 100000000 17 100000000 100000000 100000000 100000000 100000000 100000000 16 100000000 100000000 100000000 100000000 
EOF
